benchmark/results/graph__15-1000-0.10-04_13/error_log/graph__15-1000-0.10-04_13_QuintonOs_Benders_primal_sub_ERRORLOG.lp
\ This file has been generated by DOcplex
\ ENCODING=ISO-8859-1
\Problem name: Quinton Bounded Benders_primal_sub

Maximize
 obj: tau
Subject To
 c1: tau <= 0.001574803150
 c2: y_a0_proc_0 + y_a0_proc_1 + y_a0_proc_2 + y_a0_proc_3 - tau = 0
 c3: y_a0_proc_0 <= 0
 c4: y_a0_proc_1 <= 1
 c5: y_a0_proc_2 <= 0
 c6: y_a0_proc_3 <= 0
 c7: tau <= 0.001049317943
 c8: y_a1_proc_1 + y_a1_proc_2 - tau = 0
 c9: y_a1_proc_1 <= 1
 c10: y_a1_proc_2 <= 0
 c11: tau <= 0.001172332943
 c12: y_a2_proc_0 + y_a2_proc_1 + y_a2_proc_3 - tau = 0
 c13: y_a2_proc_0 <= 0
 c14: y_a2_proc_1 <= 0
 c15: y_a2_proc_3 <= 1
 c16: tau <= 0.000809716599
 c17: y_a3_proc_1 + y_a3_proc_2 - tau = 0
 c18: y_a3_proc_1 <= 0
 c19: y_a3_proc_2 <= 1
 c20: tau <= 0.000934579439
 c21: y_a4_proc_0 + y_a4_proc_1 + y_a4_proc_3 - tau = 0
 c22: y_a4_proc_0 <= 1
 c23: y_a4_proc_1 <= 0
 c24: y_a4_proc_3 <= 0
 c25: tau <= 0.000891265597
 c26: y_a5_proc_0 + y_a5_proc_1 + y_a5_proc_2 + y_a5_proc_3 - tau = 0
 c27: y_a5_proc_0 <= 0
 c28: y_a5_proc_1 <= 0
 c29: y_a5_proc_2 <= 0
 c30: y_a5_proc_3 <= 1
 c31: tau <= 0.001002004008
 c32: y_a6_proc_0 + y_a6_proc_3 - tau = 0
 c33: y_a6_proc_0 <= 1
 c34: y_a6_proc_3 <= 0
 c35: tau <= 0.001096491228
 c36: y_a7_proc_0 + y_a7_proc_1 + y_a7_proc_2 + y_a7_proc_3 - tau = 0
 c37: y_a7_proc_0 <= 0
 c38: y_a7_proc_1 <= 0
 c39: y_a7_proc_2 <= 1
 c40: y_a7_proc_3 <= 0
 c41: tau <= 0.001663893511
 c42: y_a8_proc_0 + y_a8_proc_1 + y_a8_proc_2 + y_a8_proc_3 - tau = 0
 c43: y_a8_proc_0 <= 0
 c44: y_a8_proc_1 <= 0
 c45: y_a8_proc_2 <= 1
 c46: y_a8_proc_3 <= 0
 c47: tau <= 0.001430615165
 c48: y_a9_proc_0 + y_a9_proc_2 + y_a9_proc_3 - tau = 0
 c49: y_a9_proc_0 <= 1
 c50: y_a9_proc_2 <= 0
 c51: y_a9_proc_3 <= 0
 c52: tau <= 0.001153402537
 c53: y_a10_proc_0 + y_a10_proc_1 + y_a10_proc_2 + y_a10_proc_3 - tau = 0
 c54: y_a10_proc_0 <= 0
 c55: y_a10_proc_1 <= 1
 c56: y_a10_proc_2 <= 0
 c57: y_a10_proc_3 <= 0
 c58: tau <= 0.001148105626
 c59: y_a11_proc_0 + y_a11_proc_1 + y_a11_proc_2 - tau = 0
 c60: y_a11_proc_0 <= 1
 c61: y_a11_proc_1 <= 0
 c62: y_a11_proc_2 <= 0
 c63: tau <= 0.001132502831
 c64: y_a12_proc_0 + y_a12_proc_1 + y_a12_proc_3 - tau = 0
 c65: y_a12_proc_0 <= 0
 c66: y_a12_proc_1 <= 1
 c67: y_a12_proc_3 <= 0
 c68: tau <= 0.002277904328
 c69: y_a13_proc_0 + y_a13_proc_1 + y_a13_proc_2 + y_a13_proc_3 - tau = 0
 c70: y_a13_proc_0 <= 1
 c71: y_a13_proc_1 <= 0
 c72: y_a13_proc_2 <= 0
 c73: y_a13_proc_3 <= 0
 c74: tau <= 0.001526717557
 c75: y_a14_proc_0 + y_a14_proc_2 + y_a14_proc_3 - tau = 0
 c76: y_a14_proc_0 <= 0
 c77: y_a14_proc_2 <= 1
 c78: y_a14_proc_3 <= 0
 c79: u_a0 - u_a1 - 953 y_a1_proc_1 - 1022 y_a1_proc_2 >= 0
 c80: u_a0 - u_a2 - 901 y_a2_proc_0 - 594 y_a2_proc_1 - 853 y_a2_proc_3 >= 0
 c81: u_a3 - u_a0 - 965 y_a0_proc_0 - 635 y_a0_proc_1 - 959 y_a0_proc_2
      - 956 y_a0_proc_3 >= 0
 c82: u_a4 - u_a2 - 901 y_a2_proc_0 - 594 y_a2_proc_1 - 853 y_a2_proc_3 >= 0
 c83: u_a1 - u_a5 - 816 y_a5_proc_0 - 1133 y_a5_proc_1 - 1093 y_a5_proc_2
      - 1122 y_a5_proc_3 >= -1
 c84: u_a6 - u_a1 - 953 y_a1_proc_1 - 1022 y_a1_proc_2 >= 0
 c85: u_a4 - u_a7 - 371 y_a7_proc_0 - 1235 y_a7_proc_1 - 912 y_a7_proc_2
      - 654 y_a7_proc_3 >= 0
 c86: u_a5 - u_a8 - 702 y_a8_proc_0 - 787 y_a8_proc_1 - 601 y_a8_proc_2
      - 982 y_a8_proc_3 >= 0
 c87: u_a7 - u_a9 - 699 y_a9_proc_0 - 844 y_a9_proc_2 - 1276 y_a9_proc_3 >= 0
 c88: u_a10 - u_a9 - 699 y_a9_proc_0 - 844 y_a9_proc_2 - 1276 y_a9_proc_3 >= 0
 c89: u_a10 - u_a11 - 871 y_a11_proc_0 - 1126 y_a11_proc_1 - 1255 y_a11_proc_2
       >= 0
 c90: u_a12 - u_a10 - 976 y_a10_proc_0 - 867 y_a10_proc_1 - 626 y_a10_proc_2
      - 999 y_a10_proc_3 >= 0
 c91: u_a2 - u_a13 - 439 y_a13_proc_0 - 1063 y_a13_proc_1 - 1179 y_a13_proc_2
      - 676 y_a13_proc_3 >= 0
 c92: u_a14 - u_a10 - 976 y_a10_proc_0 - 867 y_a10_proc_1 - 626 y_a10_proc_2
      - 999 y_a10_proc_3 >= 0
 c93: u_a7 - u_a5 - 816 y_a5_proc_0 - 1133 y_a5_proc_1 - 1093 y_a5_proc_2
      - 1122 y_a5_proc_3 >= 0
 c94: u_a13 - u_a14 - 931 y_a14_proc_0 - 655 y_a14_proc_2 - 795 y_a14_proc_3
       >= -1
 c95: u_a7 - u_a4 - 1070 y_a4_proc_0 - 782 y_a4_proc_1 - 1148 y_a4_proc_3 >= -1
 c96: u_a13 - u_a10 - 976 y_a10_proc_0 - 867 y_a10_proc_1 - 626 y_a10_proc_2
      - 999 y_a10_proc_3 >= -1
 c97: u_a11 - u_a7 - 371 y_a7_proc_0 - 1235 y_a7_proc_1 - 912 y_a7_proc_2
      - 654 y_a7_proc_3 >= 0
 c98: u_a13 - u_a3 - 891 y_a3_proc_1 - 1235 y_a3_proc_2 >= -1
 c99: u_a9 - u_a0 - 965 y_a0_proc_0 - 635 y_a0_proc_1 - 959 y_a0_proc_2
      - 956 y_a0_proc_3 >= 0
 c100: u_a2 - u_a6 - 998 y_a6_proc_0 - 1112 y_a6_proc_3 >= 0
 c101: u_a12 - u_a8 - 702 y_a8_proc_0 - 787 y_a8_proc_1 - 601 y_a8_proc_2
       - 982 y_a8_proc_3 >= 0
 c102: u_a0 - u_a14 - 931 y_a14_proc_0 - 655 y_a14_proc_2 - 795 y_a14_proc_3
        >= -1
 c103: u_a8 - u_a1 - 953 y_a1_proc_1 - 1022 y_a1_proc_2 >= 0
 c104: u_a1 - u_a0 - 959 y_a0_proc_2 >= -2571
 c105: u_a1 - u_a0 - 635 y_a0_proc_1 >= -19
 c106: u_a0 - u_a1 - 1022 y_a1_proc_2 >= -2534
 c107: u_a0 - u_a1 - 953 y_a1_proc_1 >= 18
 c108: u_a2 - u_a0 - 965 y_a0_proc_0 >= -2571
 c109: u_a2 - u_a0 - 956 y_a0_proc_3 >= -1295
 c110: u_a2 - u_a0 - 635 y_a0_proc_1 >= -1295
 c111: u_a0 - u_a2 - 901 y_a2_proc_0 >= -2534
 c112: u_a0 - u_a2 - 853 y_a2_proc_3 >= -1258
 c113: u_a0 - u_a2 - 594 y_a2_proc_1 >= -1258
 c114: u_a3 - u_a0 - 959 y_a0_proc_2 >= -1295
 c115: u_a3 - u_a0 - 635 y_a0_proc_1 >= -1295
 c116: u_a0 - u_a3 - 1235 y_a3_proc_2 >= -1258
 c117: u_a0 - u_a3 - 891 y_a3_proc_1 >= -1258
 c118: u_a4 - u_a0 - 965 y_a0_proc_0 >= -1258
 c119: u_a4 - u_a0 - 956 y_a0_proc_3 >= -2534
 c120: u_a4 - u_a0 - 635 y_a0_proc_1 >= -1258
 c121: u_a0 - u_a4 - 1070 y_a4_proc_0 >= -1295
 c122: u_a0 - u_a4 - 1148 y_a4_proc_3 >= -2571
 c123: u_a0 - u_a4 - 782 y_a4_proc_1 >= -1295
 c124: u_a5 - u_a0 - 965 y_a0_proc_0 >= -2571
 c125: u_a5 - u_a0 - 959 y_a0_proc_2 >= -2571
 c126: u_a5 - u_a0 - 956 y_a0_proc_3 >= -1295
 c127: u_a5 - u_a0 - 635 y_a0_proc_1 >= -1295
 c128: u_a0 - u_a5 - 816 y_a5_proc_0 >= -2534
 c129: u_a0 - u_a5 - 1093 y_a5_proc_2 >= -2534
 c130: u_a0 - u_a5 - 1122 y_a5_proc_3 >= -1258
 c131: u_a0 - u_a5 - 1133 y_a5_proc_1 >= -1258
 c132: u_a6 - u_a0 - 965 y_a0_proc_0 >= -1295
 c133: u_a6 - u_a0 - 956 y_a0_proc_3 >= -2571
 c134: u_a0 - u_a6 - 998 y_a6_proc_0 >= -1258
 c135: u_a0 - u_a6 - 1112 y_a6_proc_3 >= -2534
 c136: u_a7 - u_a0 - 965 y_a0_proc_0 >= -2571
 c137: u_a7 - u_a0 - 959 y_a0_proc_2 >= -1295
 c138: u_a7 - u_a0 - 956 y_a0_proc_3 >= -2571
 c139: u_a7 - u_a0 - 635 y_a0_proc_1 >= -1295
 c140: u_a0 - u_a7 - 371 y_a7_proc_0 >= -2534
 c141: u_a0 - u_a7 - 912 y_a7_proc_2 >= -1258
 c142: u_a0 - u_a7 - 654 y_a7_proc_3 >= -2534
 c143: u_a0 - u_a7 - 1235 y_a7_proc_1 >= -1258
 c144: u_a8 - u_a0 - 965 y_a0_proc_0 >= -2534
 c145: u_a8 - u_a0 - 959 y_a0_proc_2 >= -1258
 c146: u_a8 - u_a0 - 956 y_a0_proc_3 >= -2534
 c147: u_a8 - u_a0 - 635 y_a0_proc_1 >= -1258
 c148: u_a0 - u_a8 - 702 y_a8_proc_0 >= -2571
 c149: u_a0 - u_a8 - 601 y_a8_proc_2 >= -1295
 c150: u_a0 - u_a8 - 982 y_a8_proc_3 >= -2571
 c151: u_a0 - u_a8 - 787 y_a8_proc_1 >= -1295
 c152: u_a9 - u_a0 - 965 y_a0_proc_0 >= -1295
 c153: u_a9 - u_a0 - 959 y_a0_proc_2 >= -2571
 c154: u_a9 - u_a0 - 956 y_a0_proc_3 >= -2571
 c155: u_a0 - u_a9 - 699 y_a9_proc_0 >= -1258
 c156: u_a0 - u_a9 - 844 y_a9_proc_2 >= -2534
 c157: u_a0 - u_a9 - 1276 y_a9_proc_3 >= -2534
 c158: u_a10 - u_a0 - 965 y_a0_proc_0 >= -2552
 c159: u_a10 - u_a0 - 959 y_a0_proc_2 >= -2552
 c160: u_a10 - u_a0 - 956 y_a0_proc_3 >= -2552
 c161: u_a10 - u_a0 - 635 y_a0_proc_1 >= 0
 c162: u_a0 - u_a10 - 976 y_a10_proc_0 >= -2553
 c163: u_a0 - u_a10 - 626 y_a10_proc_2 >= -2553
 c164: u_a0 - u_a10 - 999 y_a10_proc_3 >= -2553
 c165: u_a0 - u_a10 - 867 y_a10_proc_1 >= -1
 c166: u_a11 - u_a0 - 965 y_a0_proc_0 >= -1295
 c167: u_a11 - u_a0 - 959 y_a0_proc_2 >= -2571
 c168: u_a11 - u_a0 - 635 y_a0_proc_1 >= -1295
 c169: u_a0 - u_a11 - 871 y_a11_proc_0 >= -1258
 c170: u_a0 - u_a11 - 1255 y_a11_proc_2 >= -2534
 c171: u_a0 - u_a11 - 1126 y_a11_proc_1 >= -1258
 c172: u_a12 - u_a0 - 965 y_a0_proc_0 >= -2552
 c173: u_a12 - u_a0 - 956 y_a0_proc_3 >= -2552
 c174: u_a12 - u_a0 - 635 y_a0_proc_1 >= 0
 c175: u_a0 - u_a12 - 1044 y_a12_proc_0 >= -2553
 c176: u_a0 - u_a12 - 727 y_a12_proc_3 >= -2553
 c177: u_a0 - u_a12 - 883 y_a12_proc_1 >= -1
 c178: u_a13 - u_a0 - 965 y_a0_proc_0 >= -1295
 c179: u_a13 - u_a0 - 959 y_a0_proc_2 >= -2571
 c180: u_a13 - u_a0 - 956 y_a0_proc_3 >= -2571
 c181: u_a13 - u_a0 - 635 y_a0_proc_1 >= -1295
 c182: u_a0 - u_a13 - 439 y_a13_proc_0 >= -1258
 c183: u_a0 - u_a13 - 1179 y_a13_proc_2 >= -2534
 c184: u_a0 - u_a13 - 676 y_a13_proc_3 >= -2534
 c185: u_a0 - u_a13 - 1063 y_a13_proc_1 >= -1258
 c186: u_a14 - u_a0 - 965 y_a0_proc_0 >= -2571
 c187: u_a14 - u_a0 - 959 y_a0_proc_2 >= -1295
 c188: u_a14 - u_a0 - 956 y_a0_proc_3 >= -2571
 c189: u_a0 - u_a14 - 931 y_a14_proc_0 >= -2534
 c190: u_a0 - u_a14 - 655 y_a14_proc_2 >= -1258
 c191: u_a0 - u_a14 - 795 y_a14_proc_3 >= -2534
 c192: u_a2 - u_a1 - 953 y_a1_proc_1 >= -1258
 c193: u_a1 - u_a2 - 594 y_a2_proc_1 >= -1295
 c194: u_a3 - u_a1 - 1022 y_a1_proc_2 >= -1295
 c195: u_a3 - u_a1 - 953 y_a1_proc_1 >= -1295
 c196: u_a1 - u_a3 - 1235 y_a3_proc_2 >= -1258
 c197: u_a1 - u_a3 - 891 y_a3_proc_1 >= -1258
 c198: u_a4 - u_a1 - 953 y_a1_proc_1 >= -1295
 c199: u_a1 - u_a4 - 782 y_a4_proc_1 >= -1258
 c200: u_a5 - u_a1 - 1022 y_a1_proc_2 >= -2571
 c201: u_a5 - u_a1 - 953 y_a1_proc_1 >= -1295
 c202: u_a1 - u_a5 - 1093 y_a5_proc_2 >= -2534
 c203: u_a1 - u_a5 - 1133 y_a5_proc_1 >= -1258
 c204: u_a7 - u_a1 - 1022 y_a1_proc_2 >= -1295
 c205: u_a7 - u_a1 - 953 y_a1_proc_1 >= -1295
 c206: u_a1 - u_a7 - 912 y_a7_proc_2 >= -1258
 c207: u_a1 - u_a7 - 1235 y_a7_proc_1 >= -1258
 c208: u_a8 - u_a1 - 1022 y_a1_proc_2 >= -1295
 c209: u_a8 - u_a1 - 953 y_a1_proc_1 >= -1295
 c210: u_a1 - u_a8 - 601 y_a8_proc_2 >= -1258
 c211: u_a1 - u_a8 - 787 y_a8_proc_1 >= -1258
 c212: u_a9 - u_a1 - 1022 y_a1_proc_2 >= -2571
 c213: u_a1 - u_a9 - 844 y_a9_proc_2 >= -2534
 c214: u_a10 - u_a1 - 1022 y_a1_proc_2 >= -2534
 c215: u_a10 - u_a1 - 953 y_a1_proc_1 >= 18
 c216: u_a1 - u_a10 - 626 y_a10_proc_2 >= -2571
 c217: u_a1 - u_a10 - 867 y_a10_proc_1 >= -19
 c218: u_a11 - u_a1 - 1022 y_a1_proc_2 >= -2571
 c219: u_a11 - u_a1 - 953 y_a1_proc_1 >= -1295
 c220: u_a1 - u_a11 - 1255 y_a11_proc_2 >= -2534
 c221: u_a1 - u_a11 - 1126 y_a11_proc_1 >= -1258
 c222: u_a12 - u_a1 - 953 y_a1_proc_1 >= 18
 c223: u_a1 - u_a12 - 883 y_a12_proc_1 >= -19
 c224: u_a13 - u_a1 - 1022 y_a1_proc_2 >= -2571
 c225: u_a13 - u_a1 - 953 y_a1_proc_1 >= -1295
 c226: u_a1 - u_a13 - 1179 y_a13_proc_2 >= -2534
 c227: u_a1 - u_a13 - 1063 y_a13_proc_1 >= -1258
 c228: u_a14 - u_a1 - 1022 y_a1_proc_2 >= -1295
 c229: u_a1 - u_a14 - 655 y_a14_proc_2 >= -1258
 c230: u_a3 - u_a2 - 594 y_a2_proc_1 >= -2571
 c231: u_a2 - u_a3 - 891 y_a3_proc_1 >= -2534
 c232: u_a4 - u_a2 - 901 y_a2_proc_0 >= -1295
 c233: u_a4 - u_a2 - 853 y_a2_proc_3 >= -1295
 c234: u_a4 - u_a2 - 594 y_a2_proc_1 >= -2571
 c235: u_a2 - u_a4 - 1070 y_a4_proc_0 >= -1258
 c236: u_a2 - u_a4 - 1148 y_a4_proc_3 >= -1258
 c237: u_a2 - u_a4 - 782 y_a4_proc_1 >= -2534
 c238: u_a5 - u_a2 - 901 y_a2_proc_0 >= -2571
 c239: u_a5 - u_a2 - 853 y_a2_proc_3 >= -19
 c240: u_a5 - u_a2 - 594 y_a2_proc_1 >= -2571
 c241: u_a2 - u_a5 - 816 y_a5_proc_0 >= -2534
 c242: u_a2 - u_a5 - 1122 y_a5_proc_3 >= 18
 c243: u_a2 - u_a5 - 1133 y_a5_proc_1 >= -2534
 c244: u_a6 - u_a2 - 901 y_a2_proc_0 >= -1295
 c245: u_a6 - u_a2 - 853 y_a2_proc_3 >= -1295
 c246: u_a2 - u_a6 - 998 y_a6_proc_0 >= -1258
 c247: u_a2 - u_a6 - 1112 y_a6_proc_3 >= -1258
 c248: u_a7 - u_a2 - 901 y_a2_proc_0 >= -2571
 c249: u_a7 - u_a2 - 853 y_a2_proc_3 >= -1295
 c250: u_a7 - u_a2 - 594 y_a2_proc_1 >= -2571
 c251: u_a2 - u_a7 - 371 y_a7_proc_0 >= -2534
 c252: u_a2 - u_a7 - 654 y_a7_proc_3 >= -1258
 c253: u_a2 - u_a7 - 1235 y_a7_proc_1 >= -2534
 c254: u_a8 - u_a2 - 901 y_a2_proc_0 >= -2571
 c255: u_a8 - u_a2 - 853 y_a2_proc_3 >= -1295
 c256: u_a8 - u_a2 - 594 y_a2_proc_1 >= -2571
 c257: u_a2 - u_a8 - 702 y_a8_proc_0 >= -2534
 c258: u_a2 - u_a8 - 982 y_a8_proc_3 >= -1258
 c259: u_a2 - u_a8 - 787 y_a8_proc_1 >= -2534
 c260: u_a9 - u_a2 - 901 y_a2_proc_0 >= -1295
 c261: u_a9 - u_a2 - 853 y_a2_proc_3 >= -1295
 c262: u_a2 - u_a9 - 699 y_a9_proc_0 >= -1258
 c263: u_a2 - u_a9 - 1276 y_a9_proc_3 >= -1258
 c264: u_a10 - u_a2 - 901 y_a2_proc_0 >= -2571
 c265: u_a10 - u_a2 - 853 y_a2_proc_3 >= -1295
 c266: u_a10 - u_a2 - 594 y_a2_proc_1 >= -1295
 c267: u_a2 - u_a10 - 976 y_a10_proc_0 >= -2534
 c268: u_a2 - u_a10 - 999 y_a10_proc_3 >= -1258
 c269: u_a2 - u_a10 - 867 y_a10_proc_1 >= -1258
 c270: u_a11 - u_a2 - 901 y_a2_proc_0 >= -1295
 c271: u_a11 - u_a2 - 594 y_a2_proc_1 >= -2571
 c272: u_a2 - u_a11 - 871 y_a11_proc_0 >= -1258
 c273: u_a2 - u_a11 - 1126 y_a11_proc_1 >= -2534
 c274: u_a12 - u_a2 - 901 y_a2_proc_0 >= -2534
 c275: u_a12 - u_a2 - 853 y_a2_proc_3 >= -1258
 c276: u_a12 - u_a2 - 594 y_a2_proc_1 >= -1258
 c277: u_a2 - u_a12 - 1044 y_a12_proc_0 >= -2571
 c278: u_a2 - u_a12 - 727 y_a12_proc_3 >= -1295
 c279: u_a2 - u_a12 - 883 y_a12_proc_1 >= -1295
 c280: u_a13 - u_a2 - 901 y_a2_proc_0 >= -1295
 c281: u_a13 - u_a2 - 853 y_a2_proc_3 >= -1295
 c282: u_a13 - u_a2 - 594 y_a2_proc_1 >= -2571
 c283: u_a2 - u_a13 - 439 y_a13_proc_0 >= -1258
 c284: u_a2 - u_a13 - 676 y_a13_proc_3 >= -1258
 c285: u_a2 - u_a13 - 1063 y_a13_proc_1 >= -2534
 c286: u_a14 - u_a2 - 901 y_a2_proc_0 >= -2571
 c287: u_a14 - u_a2 - 853 y_a2_proc_3 >= -1295
 c288: u_a2 - u_a14 - 931 y_a14_proc_0 >= -2534
 c289: u_a2 - u_a14 - 795 y_a14_proc_3 >= -1258
 c290: u_a4 - u_a3 - 891 y_a3_proc_1 >= -2571
 c291: u_a3 - u_a4 - 782 y_a4_proc_1 >= -2534
 c292: u_a5 - u_a3 - 1235 y_a3_proc_2 >= -1295
 c293: u_a5 - u_a3 - 891 y_a3_proc_1 >= -2571
 c294: u_a3 - u_a5 - 1093 y_a5_proc_2 >= -1258
 c295: u_a3 - u_a5 - 1133 y_a5_proc_1 >= -2534
 c296: u_a7 - u_a3 - 1235 y_a3_proc_2 >= -1
 c297: u_a7 - u_a3 - 891 y_a3_proc_1 >= -2553
 c298: u_a3 - u_a7 - 912 y_a7_proc_2 >= 0
 c299: u_a3 - u_a7 - 1235 y_a7_proc_1 >= -2552
 c300: u_a8 - u_a3 - 1235 y_a3_proc_2 >= -19
 c301: u_a8 - u_a3 - 891 y_a3_proc_1 >= -2571
 c302: u_a3 - u_a8 - 601 y_a8_proc_2 >= 18
 c303: u_a3 - u_a8 - 787 y_a8_proc_1 >= -2534
 c304: u_a9 - u_a3 - 1235 y_a3_proc_2 >= -1258
 c305: u_a3 - u_a9 - 844 y_a9_proc_2 >= -1295
 c306: u_a10 - u_a3 - 1235 y_a3_proc_2 >= -1295
 c307: u_a10 - u_a3 - 891 y_a3_proc_1 >= -1295
 c308: u_a3 - u_a10 - 626 y_a10_proc_2 >= -1258
 c309: u_a3 - u_a10 - 867 y_a10_proc_1 >= -1258
 c310: u_a11 - u_a3 - 1235 y_a3_proc_2 >= -1295
 c311: u_a11 - u_a3 - 891 y_a3_proc_1 >= -2571
 c312: u_a3 - u_a11 - 1255 y_a11_proc_2 >= -1258
 c313: u_a3 - u_a11 - 1126 y_a11_proc_1 >= -2534
 c314: u_a12 - u_a3 - 891 y_a3_proc_1 >= -1295
 c315: u_a3 - u_a12 - 883 y_a12_proc_1 >= -1258
 c316: u_a13 - u_a3 - 1235 y_a3_proc_2 >= -1295
 c317: u_a13 - u_a3 - 891 y_a3_proc_1 >= -2571
 c318: u_a3 - u_a13 - 1179 y_a13_proc_2 >= -1258
 c319: u_a3 - u_a13 - 1063 y_a13_proc_1 >= -2534
 c320: u_a14 - u_a3 - 1235 y_a3_proc_2 >= -1
 c321: u_a3 - u_a14 - 655 y_a14_proc_2 >= 0
 c322: u_a5 - u_a4 - 1070 y_a4_proc_0 >= -1258
 c323: u_a5 - u_a4 - 1148 y_a4_proc_3 >= -1258
 c324: u_a5 - u_a4 - 782 y_a4_proc_1 >= -2534
 c325: u_a4 - u_a5 - 816 y_a5_proc_0 >= -1295
 c326: u_a4 - u_a5 - 1122 y_a5_proc_3 >= -1295
 c327: u_a4 - u_a5 - 1133 y_a5_proc_1 >= -2571
 c328: u_a6 - u_a4 - 1070 y_a4_proc_0 >= -1
 c329: u_a6 - u_a4 - 1148 y_a4_proc_3 >= -2553
 c330: u_a4 - u_a6 - 998 y_a6_proc_0 >= 0
 c331: u_a4 - u_a6 - 1112 y_a6_proc_3 >= -2552
 c332: u_a7 - u_a4 - 1070 y_a4_proc_0 >= -1295
 c333: u_a7 - u_a4 - 1148 y_a4_proc_3 >= -2571
 c334: u_a7 - u_a4 - 782 y_a4_proc_1 >= -2571
 c335: u_a4 - u_a7 - 371 y_a7_proc_0 >= -1258
 c336: u_a4 - u_a7 - 654 y_a7_proc_3 >= -2534
 c337: u_a4 - u_a7 - 1235 y_a7_proc_1 >= -2534
 c338: u_a8 - u_a4 - 1070 y_a4_proc_0 >= -1258
 c339: u_a8 - u_a4 - 1148 y_a4_proc_3 >= -2534
 c340: u_a8 - u_a4 - 782 y_a4_proc_1 >= -2534
 c341: u_a4 - u_a8 - 702 y_a8_proc_0 >= -1295
 c342: u_a4 - u_a8 - 982 y_a8_proc_3 >= -2571
 c343: u_a4 - u_a8 - 787 y_a8_proc_1 >= -2571
 c344: u_a9 - u_a4 - 1070 y_a4_proc_0 >= -1
 c345: u_a9 - u_a4 - 1148 y_a4_proc_3 >= -2553
 c346: u_a4 - u_a9 - 699 y_a9_proc_0 >= 0
 c347: u_a4 - u_a9 - 1276 y_a9_proc_3 >= -2552
 c348: u_a10 - u_a4 - 1070 y_a4_proc_0 >= -1295
 c349: u_a10 - u_a4 - 1148 y_a4_proc_3 >= -2571
 c350: u_a10 - u_a4 - 782 y_a4_proc_1 >= -1295
 c351: u_a4 - u_a10 - 976 y_a10_proc_0 >= -1258
 c352: u_a4 - u_a10 - 999 y_a10_proc_3 >= -2534
 c353: u_a4 - u_a10 - 867 y_a10_proc_1 >= -1258
 c354: u_a11 - u_a4 - 1070 y_a4_proc_0 >= -1
 c355: u_a11 - u_a4 - 782 y_a4_proc_1 >= -2553
 c356: u_a4 - u_a11 - 871 y_a11_proc_0 >= 0
 c357: u_a4 - u_a11 - 1126 y_a11_proc_1 >= -2552
 c358: u_a12 - u_a4 - 1070 y_a4_proc_0 >= -1295
 c359: u_a12 - u_a4 - 1148 y_a4_proc_3 >= -2571
 c360: u_a12 - u_a4 - 782 y_a4_proc_1 >= -1295
 c361: u_a4 - u_a12 - 1044 y_a12_proc_0 >= -1258
 c362: u_a4 - u_a12 - 727 y_a12_proc_3 >= -2534
 c363: u_a4 - u_a12 - 883 y_a12_proc_1 >= -1258
 c364: u_a13 - u_a4 - 1070 y_a4_proc_0 >= -1
 c365: u_a13 - u_a4 - 1148 y_a4_proc_3 >= -2553
 c366: u_a13 - u_a4 - 782 y_a4_proc_1 >= -2553
 c367: u_a4 - u_a13 - 439 y_a13_proc_0 >= 0
 c368: u_a4 - u_a13 - 676 y_a13_proc_3 >= -2552
 c369: u_a4 - u_a13 - 1063 y_a13_proc_1 >= -2552
 c370: u_a14 - u_a4 - 1070 y_a4_proc_0 >= -1258
 c371: u_a14 - u_a4 - 1148 y_a4_proc_3 >= -2534
 c372: u_a4 - u_a14 - 931 y_a14_proc_0 >= -1295
 c373: u_a4 - u_a14 - 795 y_a14_proc_3 >= -2571
 c374: u_a6 - u_a5 - 816 y_a5_proc_0 >= -1258
 c375: u_a6 - u_a5 - 1122 y_a5_proc_3 >= -1258
 c376: u_a5 - u_a6 - 998 y_a6_proc_0 >= -1295
 c377: u_a5 - u_a6 - 1112 y_a6_proc_3 >= -1295
 c378: u_a7 - u_a5 - 816 y_a5_proc_0 >= -2571
 c379: u_a7 - u_a5 - 1093 y_a5_proc_2 >= -1295
 c380: u_a7 - u_a5 - 1122 y_a5_proc_3 >= -1295
 c381: u_a7 - u_a5 - 1133 y_a5_proc_1 >= -2571
 c382: u_a5 - u_a7 - 371 y_a7_proc_0 >= -2534
 c383: u_a5 - u_a7 - 912 y_a7_proc_2 >= -1258
 c384: u_a5 - u_a7 - 654 y_a7_proc_3 >= -1258
 c385: u_a5 - u_a7 - 1235 y_a7_proc_1 >= -2534
 c386: u_a8 - u_a5 - 816 y_a5_proc_0 >= -2571
 c387: u_a8 - u_a5 - 1093 y_a5_proc_2 >= -1295
 c388: u_a8 - u_a5 - 1122 y_a5_proc_3 >= -1295
 c389: u_a8 - u_a5 - 1133 y_a5_proc_1 >= -2571
 c390: u_a5 - u_a8 - 702 y_a8_proc_0 >= -2534
 c391: u_a5 - u_a8 - 601 y_a8_proc_2 >= -1258
 c392: u_a5 - u_a8 - 982 y_a8_proc_3 >= -1258
 c393: u_a5 - u_a8 - 787 y_a8_proc_1 >= -2534
 c394: u_a9 - u_a5 - 816 y_a5_proc_0 >= -1295
 c395: u_a9 - u_a5 - 1093 y_a5_proc_2 >= -2571
 c396: u_a9 - u_a5 - 1122 y_a5_proc_3 >= -1295
 c397: u_a5 - u_a9 - 699 y_a9_proc_0 >= -1258
 c398: u_a5 - u_a9 - 844 y_a9_proc_2 >= -2534
 c399: u_a5 - u_a9 - 1276 y_a9_proc_3 >= -1258
 c400: u_a10 - u_a5 - 816 y_a5_proc_0 >= -2571
 c401: u_a10 - u_a5 - 1093 y_a5_proc_2 >= -2571
 c402: u_a10 - u_a5 - 1122 y_a5_proc_3 >= -1295
 c403: u_a10 - u_a5 - 1133 y_a5_proc_1 >= -1295
 c404: u_a5 - u_a10 - 976 y_a10_proc_0 >= -2534
 c405: u_a5 - u_a10 - 626 y_a10_proc_2 >= -2534
 c406: u_a5 - u_a10 - 999 y_a10_proc_3 >= -1258
 c407: u_a5 - u_a10 - 867 y_a10_proc_1 >= -1258
 c408: u_a11 - u_a5 - 816 y_a5_proc_0 >= -1295
 c409: u_a11 - u_a5 - 1093 y_a5_proc_2 >= -2571
 c410: u_a11 - u_a5 - 1133 y_a5_proc_1 >= -2571
 c411: u_a5 - u_a11 - 871 y_a11_proc_0 >= -1258
 c412: u_a5 - u_a11 - 1255 y_a11_proc_2 >= -2534
 c413: u_a5 - u_a11 - 1126 y_a11_proc_1 >= -2534
 c414: u_a12 - u_a5 - 816 y_a5_proc_0 >= -2534
 c415: u_a12 - u_a5 - 1122 y_a5_proc_3 >= -1258
 c416: u_a12 - u_a5 - 1133 y_a5_proc_1 >= -1258
 c417: u_a5 - u_a12 - 1044 y_a12_proc_0 >= -2571
 c418: u_a5 - u_a12 - 727 y_a12_proc_3 >= -1295
 c419: u_a5 - u_a12 - 883 y_a12_proc_1 >= -1295
 c420: u_a13 - u_a5 - 816 y_a5_proc_0 >= -1295
 c421: u_a13 - u_a5 - 1093 y_a5_proc_2 >= -2571
 c422: u_a13 - u_a5 - 1122 y_a5_proc_3 >= -1295
 c423: u_a13 - u_a5 - 1133 y_a5_proc_1 >= -2571
 c424: u_a5 - u_a13 - 439 y_a13_proc_0 >= -1258
 c425: u_a5 - u_a13 - 1179 y_a13_proc_2 >= -2534
 c426: u_a5 - u_a13 - 676 y_a13_proc_3 >= -1258
 c427: u_a5 - u_a13 - 1063 y_a13_proc_1 >= -2534
 c428: u_a14 - u_a5 - 816 y_a5_proc_0 >= -2571
 c429: u_a14 - u_a5 - 1093 y_a5_proc_2 >= -1295
 c430: u_a14 - u_a5 - 1122 y_a5_proc_3 >= -1295
 c431: u_a5 - u_a14 - 931 y_a14_proc_0 >= -2534
 c432: u_a5 - u_a14 - 655 y_a14_proc_2 >= -1258
 c433: u_a5 - u_a14 - 795 y_a14_proc_3 >= -1258
 c434: u_a7 - u_a6 - 998 y_a6_proc_0 >= -1258
 c435: u_a7 - u_a6 - 1112 y_a6_proc_3 >= -2534
 c436: u_a6 - u_a7 - 371 y_a7_proc_0 >= -1295
 c437: u_a6 - u_a7 - 654 y_a7_proc_3 >= -2571
 c438: u_a8 - u_a6 - 998 y_a6_proc_0 >= -1295
 c439: u_a8 - u_a6 - 1112 y_a6_proc_3 >= -2571
 c440: u_a6 - u_a8 - 702 y_a8_proc_0 >= -1258
 c441: u_a6 - u_a8 - 982 y_a8_proc_3 >= -2534
 c442: u_a9 - u_a6 - 998 y_a6_proc_0 >= 0
 c443: u_a9 - u_a6 - 1112 y_a6_proc_3 >= -2552
 c444: u_a6 - u_a9 - 699 y_a9_proc_0 >= -1
 c445: u_a6 - u_a9 - 1276 y_a9_proc_3 >= -2553
 c446: u_a10 - u_a6 - 998 y_a6_proc_0 >= -1258
 c447: u_a10 - u_a6 - 1112 y_a6_proc_3 >= -2534
 c448: u_a6 - u_a10 - 976 y_a10_proc_0 >= -1295
 c449: u_a6 - u_a10 - 999 y_a10_proc_3 >= -2571
 c450: u_a11 - u_a6 - 998 y_a6_proc_0 >= 0
 c451: u_a6 - u_a11 - 871 y_a11_proc_0 >= -1
 c452: u_a12 - u_a6 - 998 y_a6_proc_0 >= -1295
 c453: u_a12 - u_a6 - 1112 y_a6_proc_3 >= -2571
 c454: u_a6 - u_a12 - 1044 y_a12_proc_0 >= -1258
 c455: u_a6 - u_a12 - 727 y_a12_proc_3 >= -2534
 c456: u_a13 - u_a6 - 998 y_a6_proc_0 >= 0
 c457: u_a13 - u_a6 - 1112 y_a6_proc_3 >= -2552
 c458: u_a6 - u_a13 - 439 y_a13_proc_0 >= -1
 c459: u_a6 - u_a13 - 676 y_a13_proc_3 >= -2553
 c460: u_a14 - u_a6 - 998 y_a6_proc_0 >= -1258
 c461: u_a14 - u_a6 - 1112 y_a6_proc_3 >= -2534
 c462: u_a6 - u_a14 - 931 y_a14_proc_0 >= -1295
 c463: u_a6 - u_a14 - 795 y_a14_proc_3 >= -2571
 c464: u_a8 - u_a7 - 371 y_a7_proc_0 >= -2571
 c465: u_a8 - u_a7 - 912 y_a7_proc_2 >= -19
 c466: u_a8 - u_a7 - 654 y_a7_proc_3 >= -2571
 c467: u_a8 - u_a7 - 1235 y_a7_proc_1 >= -2571
 c468: u_a7 - u_a8 - 702 y_a8_proc_0 >= -2534
 c469: u_a7 - u_a8 - 601 y_a8_proc_2 >= 18
 c470: u_a7 - u_a8 - 982 y_a8_proc_3 >= -2534
 c471: u_a7 - u_a8 - 787 y_a8_proc_1 >= -2534
 c472: u_a9 - u_a7 - 371 y_a7_proc_0 >= -1295
 c473: u_a9 - u_a7 - 912 y_a7_proc_2 >= -1295
 c474: u_a9 - u_a7 - 654 y_a7_proc_3 >= -2571
 c475: u_a7 - u_a9 - 699 y_a9_proc_0 >= -1258
 c476: u_a7 - u_a9 - 844 y_a9_proc_2 >= -1258
 c477: u_a7 - u_a9 - 1276 y_a9_proc_3 >= -2534
 c478: u_a10 - u_a7 - 371 y_a7_proc_0 >= -2571
 c479: u_a10 - u_a7 - 912 y_a7_proc_2 >= -1295
 c480: u_a10 - u_a7 - 654 y_a7_proc_3 >= -2571
 c481: u_a10 - u_a7 - 1235 y_a7_proc_1 >= -1295
 c482: u_a7 - u_a10 - 976 y_a10_proc_0 >= -2534
 c483: u_a7 - u_a10 - 626 y_a10_proc_2 >= -1258
 c484: u_a7 - u_a10 - 999 y_a10_proc_3 >= -2534
 c485: u_a7 - u_a10 - 867 y_a10_proc_1 >= -1258
 c486: u_a11 - u_a7 - 371 y_a7_proc_0 >= -1295
 c487: u_a11 - u_a7 - 912 y_a7_proc_2 >= -1295
 c488: u_a11 - u_a7 - 1235 y_a7_proc_1 >= -2571
 c489: u_a7 - u_a11 - 871 y_a11_proc_0 >= -1258
 c490: u_a7 - u_a11 - 1255 y_a11_proc_2 >= -1258
 c491: u_a7 - u_a11 - 1126 y_a11_proc_1 >= -2534
 c492: u_a12 - u_a7 - 371 y_a7_proc_0 >= -2571
 c493: u_a12 - u_a7 - 654 y_a7_proc_3 >= -2571
 c494: u_a12 - u_a7 - 1235 y_a7_proc_1 >= -1295
 c495: u_a7 - u_a12 - 1044 y_a12_proc_0 >= -2534
 c496: u_a7 - u_a12 - 727 y_a12_proc_3 >= -2534
 c497: u_a7 - u_a12 - 883 y_a12_proc_1 >= -1258
 c498: u_a13 - u_a7 - 371 y_a7_proc_0 >= -1295
 c499: u_a13 - u_a7 - 912 y_a7_proc_2 >= -1295
 c500: u_a13 - u_a7 - 654 y_a7_proc_3 >= -2571
 c501: u_a13 - u_a7 - 1235 y_a7_proc_1 >= -2571
 c502: u_a7 - u_a13 - 439 y_a13_proc_0 >= -1258
 c503: u_a7 - u_a13 - 1179 y_a13_proc_2 >= -1258
 c504: u_a7 - u_a13 - 676 y_a13_proc_3 >= -2534
 c505: u_a7 - u_a13 - 1063 y_a13_proc_1 >= -2534
 c506: u_a14 - u_a7 - 371 y_a7_proc_0 >= -2552
 c507: u_a14 - u_a7 - 912 y_a7_proc_2 >= 0
 c508: u_a14 - u_a7 - 654 y_a7_proc_3 >= -2552
 c509: u_a7 - u_a14 - 931 y_a14_proc_0 >= -2553
 c510: u_a7 - u_a14 - 655 y_a14_proc_2 >= -1
 c511: u_a7 - u_a14 - 795 y_a14_proc_3 >= -2553
 c512: u_a9 - u_a8 - 702 y_a8_proc_0 >= -1258
 c513: u_a9 - u_a8 - 601 y_a8_proc_2 >= -1258
 c514: u_a9 - u_a8 - 982 y_a8_proc_3 >= -2534
 c515: u_a8 - u_a9 - 699 y_a9_proc_0 >= -1295
 c516: u_a8 - u_a9 - 844 y_a9_proc_2 >= -1295
 c517: u_a8 - u_a9 - 1276 y_a9_proc_3 >= -2571
 c518: u_a10 - u_a8 - 702 y_a8_proc_0 >= -2571
 c519: u_a10 - u_a8 - 601 y_a8_proc_2 >= -1295
 c520: u_a10 - u_a8 - 982 y_a8_proc_3 >= -2571
 c521: u_a10 - u_a8 - 787 y_a8_proc_1 >= -1295
 c522: u_a8 - u_a10 - 976 y_a10_proc_0 >= -2534
 c523: u_a8 - u_a10 - 626 y_a10_proc_2 >= -1258
 c524: u_a8 - u_a10 - 999 y_a10_proc_3 >= -2534
 c525: u_a8 - u_a10 - 867 y_a10_proc_1 >= -1258
 c526: u_a11 - u_a8 - 702 y_a8_proc_0 >= -1258
 c527: u_a11 - u_a8 - 601 y_a8_proc_2 >= -1258
 c528: u_a11 - u_a8 - 787 y_a8_proc_1 >= -2534
 c529: u_a8 - u_a11 - 871 y_a11_proc_0 >= -1295
 c530: u_a8 - u_a11 - 1255 y_a11_proc_2 >= -1295
 c531: u_a8 - u_a11 - 1126 y_a11_proc_1 >= -2571
 c532: u_a12 - u_a8 - 702 y_a8_proc_0 >= -2534
 c533: u_a12 - u_a8 - 982 y_a8_proc_3 >= -2534
 c534: u_a12 - u_a8 - 787 y_a8_proc_1 >= -1258
 c535: u_a8 - u_a12 - 1044 y_a12_proc_0 >= -2571
 c536: u_a8 - u_a12 - 727 y_a12_proc_3 >= -2571
 c537: u_a8 - u_a12 - 883 y_a12_proc_1 >= -1295
 c538: u_a13 - u_a8 - 702 y_a8_proc_0 >= -1258
 c539: u_a13 - u_a8 - 601 y_a8_proc_2 >= -1258
 c540: u_a13 - u_a8 - 982 y_a8_proc_3 >= -2534
 c541: u_a13 - u_a8 - 787 y_a8_proc_1 >= -2534
 c542: u_a8 - u_a13 - 439 y_a13_proc_0 >= -1295
 c543: u_a8 - u_a13 - 1179 y_a13_proc_2 >= -1295
 c544: u_a8 - u_a13 - 676 y_a13_proc_3 >= -2571
 c545: u_a8 - u_a13 - 1063 y_a13_proc_1 >= -2571
 c546: u_a14 - u_a8 - 702 y_a8_proc_0 >= -2534
 c547: u_a14 - u_a8 - 601 y_a8_proc_2 >= 18
 c548: u_a14 - u_a8 - 982 y_a8_proc_3 >= -2534
 c549: u_a8 - u_a14 - 931 y_a14_proc_0 >= -2571
 c550: u_a8 - u_a14 - 655 y_a14_proc_2 >= -19
 c551: u_a8 - u_a14 - 795 y_a14_proc_3 >= -2571
 c552: u_a10 - u_a9 - 699 y_a9_proc_0 >= -1295
 c553: u_a10 - u_a9 - 844 y_a9_proc_2 >= -2571
 c554: u_a10 - u_a9 - 1276 y_a9_proc_3 >= -2571
 c555: u_a9 - u_a10 - 976 y_a10_proc_0 >= -1258
 c556: u_a9 - u_a10 - 626 y_a10_proc_2 >= -2534
 c557: u_a9 - u_a10 - 999 y_a10_proc_3 >= -2534
 c558: u_a11 - u_a9 - 699 y_a9_proc_0 >= 0
 c559: u_a11 - u_a9 - 844 y_a9_proc_2 >= -2552
 c560: u_a9 - u_a11 - 871 y_a11_proc_0 >= -1
 c561: u_a9 - u_a11 - 1255 y_a11_proc_2 >= -2553
 c562: u_a12 - u_a9 - 699 y_a9_proc_0 >= -1258
 c563: u_a12 - u_a9 - 1276 y_a9_proc_3 >= -2534
 c564: u_a9 - u_a12 - 1044 y_a12_proc_0 >= -1295
 c565: u_a9 - u_a12 - 727 y_a12_proc_3 >= -2571
 c566: u_a13 - u_a9 - 699 y_a9_proc_0 >= -1
 c567: u_a13 - u_a9 - 844 y_a9_proc_2 >= -2553
 c568: u_a13 - u_a9 - 1276 y_a9_proc_3 >= -2553
 c569: u_a9 - u_a13 - 439 y_a13_proc_0 >= 0
 c570: u_a9 - u_a13 - 1179 y_a13_proc_2 >= -2552
 c571: u_a9 - u_a13 - 676 y_a13_proc_3 >= -2552
 c572: u_a14 - u_a9 - 699 y_a9_proc_0 >= -1295
 c573: u_a14 - u_a9 - 844 y_a9_proc_2 >= -1295
 c574: u_a14 - u_a9 - 1276 y_a9_proc_3 >= -2571
 c575: u_a9 - u_a14 - 931 y_a14_proc_0 >= -1258
 c576: u_a9 - u_a14 - 655 y_a14_proc_2 >= -1258
 c577: u_a9 - u_a14 - 795 y_a14_proc_3 >= -2534
 c578: u_a11 - u_a10 - 976 y_a10_proc_0 >= -1295
 c579: u_a11 - u_a10 - 626 y_a10_proc_2 >= -2571
 c580: u_a11 - u_a10 - 867 y_a10_proc_1 >= -1295
 c581: u_a10 - u_a11 - 871 y_a11_proc_0 >= -1258
 c582: u_a10 - u_a11 - 1255 y_a11_proc_2 >= -2534
 c583: u_a10 - u_a11 - 1126 y_a11_proc_1 >= -1258
 c584: u_a12 - u_a10 - 976 y_a10_proc_0 >= -2552
 c585: u_a12 - u_a10 - 999 y_a10_proc_3 >= -2552
 c586: u_a12 - u_a10 - 867 y_a10_proc_1 >= 0
 c587: u_a10 - u_a12 - 1044 y_a12_proc_0 >= -2553
 c588: u_a10 - u_a12 - 727 y_a12_proc_3 >= -2553
 c589: u_a10 - u_a12 - 883 y_a12_proc_1 >= -1
 c590: u_a13 - u_a10 - 976 y_a10_proc_0 >= -1295
 c591: u_a13 - u_a10 - 626 y_a10_proc_2 >= -2571
 c592: u_a13 - u_a10 - 999 y_a10_proc_3 >= -2571
 c593: u_a13 - u_a10 - 867 y_a10_proc_1 >= -1295
 c594: u_a10 - u_a13 - 439 y_a13_proc_0 >= -1258
 c595: u_a10 - u_a13 - 1179 y_a13_proc_2 >= -2534
 c596: u_a10 - u_a13 - 676 y_a13_proc_3 >= -2534
 c597: u_a10 - u_a13 - 1063 y_a13_proc_1 >= -1258
 c598: u_a14 - u_a10 - 976 y_a10_proc_0 >= -2571
 c599: u_a14 - u_a10 - 626 y_a10_proc_2 >= -1295
 c600: u_a14 - u_a10 - 999 y_a10_proc_3 >= -2571
 c601: u_a10 - u_a14 - 931 y_a14_proc_0 >= -2534
 c602: u_a10 - u_a14 - 655 y_a14_proc_2 >= -1258
 c603: u_a10 - u_a14 - 795 y_a14_proc_3 >= -2534
 c604: u_a12 - u_a11 - 871 y_a11_proc_0 >= -1295
 c605: u_a12 - u_a11 - 1126 y_a11_proc_1 >= -1295
 c606: u_a11 - u_a12 - 1044 y_a12_proc_0 >= -1258
 c607: u_a11 - u_a12 - 883 y_a12_proc_1 >= -1258
 c608: u_a13 - u_a11 - 871 y_a11_proc_0 >= -1
 c609: u_a13 - u_a11 - 1255 y_a11_proc_2 >= -2553
 c610: u_a13 - u_a11 - 1126 y_a11_proc_1 >= -2553
 c611: u_a11 - u_a13 - 439 y_a13_proc_0 >= 0
 c612: u_a11 - u_a13 - 1179 y_a13_proc_2 >= -2552
 c613: u_a11 - u_a13 - 1063 y_a13_proc_1 >= -2552
 c614: u_a14 - u_a11 - 871 y_a11_proc_0 >= -1295
 c615: u_a14 - u_a11 - 1255 y_a11_proc_2 >= -1295
 c616: u_a11 - u_a14 - 931 y_a14_proc_0 >= -1258
 c617: u_a11 - u_a14 - 655 y_a14_proc_2 >= -1258
 c618: u_a13 - u_a12 - 1044 y_a12_proc_0 >= -1258
 c619: u_a13 - u_a12 - 727 y_a12_proc_3 >= -2534
 c620: u_a13 - u_a12 - 883 y_a12_proc_1 >= -1258
 c621: u_a12 - u_a13 - 439 y_a13_proc_0 >= -1295
 c622: u_a12 - u_a13 - 676 y_a13_proc_3 >= -2571
 c623: u_a12 - u_a13 - 1063 y_a13_proc_1 >= -1295
 c624: u_a14 - u_a12 - 1044 y_a12_proc_0 >= -2571
 c625: u_a14 - u_a12 - 727 y_a12_proc_3 >= -2571
 c626: u_a12 - u_a14 - 931 y_a14_proc_0 >= -2534
 c627: u_a12 - u_a14 - 795 y_a14_proc_3 >= -2534
 c628: u_a14 - u_a13 - 439 y_a13_proc_0 >= -1295
 c629: u_a14 - u_a13 - 1179 y_a13_proc_2 >= -1295
 c630: u_a14 - u_a13 - 676 y_a13_proc_3 >= -2571
 c631: u_a13 - u_a14 - 931 y_a14_proc_0 >= -1258
 c632: u_a13 - u_a14 - 655 y_a14_proc_2 >= -1258
 c633: u_a13 - u_a14 - 795 y_a14_proc_3 >= -2534

Bounds
End
